
Gurobi 11.0.3 (linux64) logging started Thu Nov 21 17:46:05 2024

Set parameter LogFile to value "/home/yihong/Coding/OR_SUC/SUC_results_bigM100000_thread4/case24_ieee_rts_theta0.5_epsilon0.025_gurobi_seed200000_num_gen100_N_WDR100_load_scaling_factor1_exact_T24quadra_cost.txt"
Set parameter TimeLimit to value 3600
Gurobi Optimizer version 11.0.3 build v11.0.3rc0 (linux64 - "Ubuntu 20.04.6 LTS")

CPU model: AMD EPYC 7532 32-Core Processor, instruction set [SSE2|AVX|AVX2]
Thread count: 64 physical cores, 128 logical processors, using up to 4 threads

Optimize a model with 52043 rows, 29961 columns and 712938 nonzeros
Model fingerprint: 0x4d60668d
Model has 2400 quadratic constraints
Variable types: 27461 continuous, 2500 integer (2500 binary)
Coefficient statistics:
  Matrix range     [3e-04, 1e+05]
  QMatrix range    [2e-03, 8e-03]
  QLMatrix range   [6e-01, 6e+01]
  Objective range  [1e+00, 1e+00]
  Bounds range     [1e+00, 1e+00]
  RHS range        [1e+00, 1e+05]
Presolve removed 42116 rows and 12950 columns
Presolve time: 0.31s
Presolved: 9927 rows, 17011 columns, 63082 nonzeros
Presolved model has 2400 quadratic constraint(s)
Variable types: 14551 continuous, 2460 integer (2460 binary)

Root relaxation: objective 7.036490e+04, 8594 iterations, 0.23 seconds (0.30 work units)

    Nodes    |    Current Node    |     Objective Bounds      |     Work
 Expl Unexpl |  Obj  Depth IntInf | Incumbent    BestBd   Gap | It/Node Time

     0     0 70364.9006    0   28          - 70364.9006      -     -    0s
     0     0 366650.215    0  657          - 366650.215      -     -    1s
     0     0 413527.500    0  661          - 413527.500      -     -    1s
     0     0 652785.546    0  667          - 652785.546      -     -    1s
     0     0 652841.859    0  422          - 652841.859      -     -    1s
     0     0 653360.140    0  224          - 653360.140      -     -    1s
     0     0 653361.581    0  224          - 653361.581      -     -    1s
     0     0 653499.880    0  224          - 653499.880      -     -    1s
     0     0 653511.364    0  224          - 653511.364      -     -    1s
     0     0 653511.364    0  224          - 653511.364      -     -    2s
     0     2 653511.364    0  224          - 653511.364      -     -    2s
   183   190 653967.697   34  168          - 653649.112      -  47.2    5s
H  319   251                    653992.77021 653649.112  0.05%  36.7    6s
*  319   251             112    653992.77021 653649.112  0.05%  36.7    6s

Cutting planes:
  Gomory: 11
  Implied bound: 353
  MIR: 138
  Flow cover: 181

Explored 343 nodes (35934 simplex iterations) in 7.31 seconds (10.32 work units)
Thread count was 4 (of 128 available processors)

Solution count 2: 653993 653993 

Optimal solution found (tolerance 1.00e-03)
Warning: max constraint violation (1.2616e-07) exceeds tolerance
Best objective 6.539927702059e+05, best bound 6.536491118274e+05, gap 0.0525%
